\* Jobshop *\
Minimize
OBJ: 2 E_J1 + 2 E_J2 + 2 E_J3 + 2 E_J4 + 2 E_J5 + 5 T_J1 + 5 T_J2 + 5 T_J3
 + 5 T_J4 + 5 T_J5
Subject To
_C1: E_J1 - T_J1 + X_('J1',_'M7') = 42
_C10: X_('J1',_'M6') - X_('J1',_'M7') <= -12
_C100: X_('J3',_'M2') - X_('J4',_'M2') - 1000 Y_('J4',_'J3',_'M2') <= 0
_C101: X_('J4',_'M2') - X_('J5',_'M2') + 1000 Y_('J4',_'J5',_'M2') <= 987
_C102: - X_('J4',_'M2') + X_('J5',_'M2') - 1000 Y_('J4',_'J5',_'M2') <= -15
_C103: - X_('J1',_'M2') + X_('J5',_'M2') + 1000 Y_('J5',_'J1',_'M2') <= 985
_C104: X_('J1',_'M2') - X_('J5',_'M2') - 1000 Y_('J5',_'J1',_'M2') <= -8
_C105: - X_('J2',_'M2') + X_('J5',_'M2') + 1000 Y_('J5',_'J2',_'M2') <= 985
_C106: X_('J2',_'M2') - X_('J5',_'M2') - 1000 Y_('J5',_'J2',_'M2') <= -11
_C107: - X_('J3',_'M2') + X_('J5',_'M2') + 1000 Y_('J5',_'J3',_'M2') <= 985
_C108: X_('J3',_'M2') - X_('J5',_'M2') - 1000 Y_('J5',_'J3',_'M2') <= 0
_C109: - X_('J4',_'M2') + X_('J5',_'M2') + 1000 Y_('J5',_'J4',_'M2') <= 985
_C11: - X_('J2',_'M3') + X_('J2',_'M6') <= -9
_C110: X_('J4',_'M2') - X_('J5',_'M2') - 1000 Y_('J5',_'J4',_'M2') <= -13
_C111: X_('J1',_'M3') - X_('J2',_'M3') + 1000 Y_('J1',_'J2',_'M3') <= 1000
_C112: - X_('J1',_'M3') + X_('J2',_'M3') - 1000 Y_('J1',_'J2',_'M3') <= -6
_C113: X_('J1',_'M3') - X_('J3',_'M3') + 1000 Y_('J1',_'J3',_'M3') <= 1000
_C114: - X_('J1',_'M3') + X_('J3',_'M3') - 1000 Y_('J1',_'J3',_'M3') <= -12
_C115: X_('J1',_'M3') - X_('J4',_'M3') + 1000 Y_('J1',_'J4',_'M3') <= 1000
_C116: - X_('J1',_'M3') + X_('J4',_'M3') - 1000 Y_('J1',_'J4',_'M3') <= 0
_C117: X_('J1',_'M3') - X_('J5',_'M3') + 1000 Y_('J1',_'J5',_'M3') <= 1000
_C118: - X_('J1',_'M3') + X_('J5',_'M3') - 1000 Y_('J1',_'J5',_'M3') <= -19
_C119: - X_('J1',_'M3') + X_('J2',_'M3') + 1000 Y_('J2',_'J1',_'M3') <= 994
_C12: X_('J2',_'M3') - X_('J2',_'M5') <= -6
_C120: X_('J1',_'M3') - X_('J2',_'M3') - 1000 Y_('J2',_'J1',_'M3') <= 0
_C121: X_('J2',_'M3') - X_('J3',_'M3') + 1000 Y_('J2',_'J3',_'M3') <= 994
_C122: - X_('J2',_'M3') + X_('J3',_'M3') - 1000 Y_('J2',_'J3',_'M3') <= -12
_C123: X_('J2',_'M3') - X_('J4',_'M3') + 1000 Y_('J2',_'J4',_'M3') <= 994
_C124: - X_('J2',_'M3') + X_('J4',_'M3') - 1000 Y_('J2',_'J4',_'M3') <= 0
_C125: X_('J2',_'M3') - X_('J5',_'M3') + 1000 Y_('J2',_'J5',_'M3') <= 994
_C126: - X_('J2',_'M3') + X_('J5',_'M3') - 1000 Y_('J2',_'J5',_'M3') <= -19
_C127: - X_('J1',_'M3') + X_('J3',_'M3') + 1000 Y_('J3',_'J1',_'M3') <= 988
_C128: X_('J1',_'M3') - X_('J3',_'M3') - 1000 Y_('J3',_'J1',_'M3') <= 0
_C129: - X_('J2',_'M3') + X_('J3',_'M3') + 1000 Y_('J3',_'J2',_'M3') <= 988
_C13: X_('J2',_'M5') - X_('J2',_'M7') <= -14
_C130: X_('J2',_'M3') - X_('J3',_'M3') - 1000 Y_('J3',_'J2',_'M3') <= -6
_C131: X_('J3',_'M3') - X_('J4',_'M3') + 1000 Y_('J3',_'J4',_'M3') <= 988
_C132: - X_('J3',_'M3') + X_('J4',_'M3') - 1000 Y_('J3',_'J4',_'M3') <= 0
_C133: X_('J3',_'M3') - X_('J5',_'M3') + 1000 Y_('J3',_'J5',_'M3') <= 988
_C134: - X_('J3',_'M3') + X_('J5',_'M3') - 1000 Y_('J3',_'J5',_'M3') <= -19
_C135: - X_('J1',_'M3') + X_('J4',_'M3') + 1000 Y_('J4',_'J1',_'M3') <= 1000
_C136: X_('J1',_'M3') - X_('J4',_'M3') - 1000 Y_('J4',_'J1',_'M3') <= 0
_C137: - X_('J2',_'M3') + X_('J4',_'M3') + 1000 Y_('J4',_'J2',_'M3') <= 1000
_C138: X_('J2',_'M3') - X_('J4',_'M3') - 1000 Y_('J4',_'J2',_'M3') <= -6
_C139: - X_('J3',_'M3') + X_('J4',_'M3') + 1000 Y_('J4',_'J3',_'M3') <= 1000
_C14: - X_('J2',_'M2') + X_('J2',_'M7') <= -6
_C140: X_('J3',_'M3') - X_('J4',_'M3') - 1000 Y_('J4',_'J3',_'M3') <= -12
_C141: X_('J4',_'M3') - X_('J5',_'M3') + 1000 Y_('J4',_'J5',_'M3') <= 1000
_C142: - X_('J4',_'M3') + X_('J5',_'M3') - 1000 Y_('J4',_'J5',_'M3') <= -19
_C143: - X_('J1',_'M3') + X_('J5',_'M3') + 1000 Y_('J5',_'J1',_'M3') <= 981
_C144: X_('J1',_'M3') - X_('J5',_'M3') - 1000 Y_('J5',_'J1',_'M3') <= 0
_C145: - X_('J2',_'M3') + X_('J5',_'M3') + 1000 Y_('J5',_'J2',_'M3') <= 981
_C146: X_('J2',_'M3') - X_('J5',_'M3') - 1000 Y_('J5',_'J2',_'M3') <= -6
_C147: - X_('J3',_'M3') + X_('J5',_'M3') + 1000 Y_('J5',_'J3',_'M3') <= 981
_C148: X_('J3',_'M3') - X_('J5',_'M3') - 1000 Y_('J5',_'J3',_'M3') <= -12
_C149: - X_('J4',_'M3') + X_('J5',_'M3') + 1000 Y_('J5',_'J4',_'M3') <= 981
_C15: - X_('J2',_'M1') + X_('J2',_'M2') <= -11
_C150: X_('J4',_'M3') - X_('J5',_'M3') - 1000 Y_('J5',_'J4',_'M3') <= 0
_C151: X_('J1',_'M4') - X_('J2',_'M4') + 1000 Y_('J1',_'J2',_'M4') <= 982
_C152: - X_('J1',_'M4') + X_('J2',_'M4') - 1000 Y_('J1',_'J2',_'M4') <= 0
_C153: X_('J1',_'M4') - X_('J3',_'M4') + 1000 Y_('J1',_'J3',_'M4') <= 982
_C154: - X_('J1',_'M4') + X_('J3',_'M4') - 1000 Y_('J1',_'J3',_'M4') <= -14
_C155: X_('J1',_'M4') - X_('J4',_'M4') + 1000 Y_('J1',_'J4',_'M4') <= 982
_C156: - X_('J1',_'M4') + X_('J4',_'M4') - 1000 Y_('J1',_'J4',_'M4') <= -8
_C157: X_('J1',_'M4') - X_('J5',_'M4') + 1000 Y_('J1',_'J5',_'M4') <= 982
_C158: - X_('J1',_'M4') + X_('J5',_'M4') - 1000 Y_('J1',_'J5',_'M4') <= -6
_C159: - X_('J1',_'M4') + X_('J2',_'M4') + 1000 Y_('J2',_'J1',_'M4') <= 1000
_C16: X_('J3',_'M3') - X_('J3',_'M7') <= -12
_C160: X_('J1',_'M4') - X_('J2',_'M4') - 1000 Y_('J2',_'J1',_'M4') <= -18
_C161: X_('J2',_'M4') - X_('J3',_'M4') + 1000 Y_('J2',_'J3',_'M4') <= 1000
_C162: - X_('J2',_'M4') + X_('J3',_'M4') - 1000 Y_('J2',_'J3',_'M4') <= -14
_C163: X_('J2',_'M4') - X_('J4',_'M4') + 1000 Y_('J2',_'J4',_'M4') <= 1000
_C164: - X_('J2',_'M4') + X_('J4',_'M4') - 1000 Y_('J2',_'J4',_'M4') <= -8
_C165: X_('J2',_'M4') - X_('J5',_'M4') + 1000 Y_('J2',_'J5',_'M4') <= 1000
_C166: - X_('J2',_'M4') + X_('J5',_'M4') - 1000 Y_('J2',_'J5',_'M4') <= -6
_C167: - X_('J1',_'M4') + X_('J3',_'M4') + 1000 Y_('J3',_'J1',_'M4') <= 986
_C168: X_('J1',_'M4') - X_('J3',_'M4') - 1000 Y_('J3',_'J1',_'M4') <= -18
_C169: - X_('J2',_'M4') + X_('J3',_'M4') + 1000 Y_('J3',_'J2',_'M4') <= 986
_C17: - X_('J3',_'M6') + X_('J3',_'M7') <= -14
_C170: X_('J2',_'M4') - X_('J3',_'M4') - 1000 Y_('J3',_'J2',_'M4') <= 0
_C171: X_('J3',_'M4') - X_('J4',_'M4') + 1000 Y_('J3',_'J4',_'M4') <= 986
_C172: - X_('J3',_'M4') + X_('J4',_'M4') - 1000 Y_('J3',_'J4',_'M4') <= -8
_C173: X_('J3',_'M4') - X_('J5',_'M4') + 1000 Y_('J3',_'J5',_'M4') <= 986
_C174: - X_('J3',_'M4') + X_('J5',_'M4') - 1000 Y_('J3',_'J5',_'M4') <= -6
_C175: - X_('J1',_'M4') + X_('J4',_'M4') + 1000 Y_('J4',_'J1',_'M4') <= 992
_C176: X_('J1',_'M4') - X_('J4',_'M4') - 1000 Y_('J4',_'J1',_'M4') <= -18
_C177: - X_('J2',_'M4') + X_('J4',_'M4') + 1000 Y_('J4',_'J2',_'M4') <= 992
_C178: X_('J2',_'M4') - X_('J4',_'M4') - 1000 Y_('J4',_'J2',_'M4') <= 0
_C179: - X_('J3',_'M4') + X_('J4',_'M4') + 1000 Y_('J4',_'J3',_'M4') <= 992
_C18: - X_('J3',_'M1') + X_('J3',_'M6') <= -14
_C180: X_('J3',_'M4') - X_('J4',_'M4') - 1000 Y_('J4',_'J3',_'M4') <= -14
_C181: X_('J4',_'M4') - X_('J5',_'M4') + 1000 Y_('J4',_'J5',_'M4') <= 992
_C182: - X_('J4',_'M4') + X_('J5',_'M4') - 1000 Y_('J4',_'J5',_'M4') <= -6
_C183: - X_('J1',_'M4') + X_('J5',_'M4') + 1000 Y_('J5',_'J1',_'M4') <= 994
_C184: X_('J1',_'M4') - X_('J5',_'M4') - 1000 Y_('J5',_'J1',_'M4') <= -18
_C185: - X_('J2',_'M4') + X_('J5',_'M4') + 1000 Y_('J5',_'J2',_'M4') <= 994
_C186: X_('J2',_'M4') - X_('J5',_'M4') - 1000 Y_('J5',_'J2',_'M4') <= 0
_C187: - X_('J3',_'M4') + X_('J5',_'M4') + 1000 Y_('J5',_'J3',_'M4') <= 994
_C188: X_('J3',_'M4') - X_('J5',_'M4') - 1000 Y_('J5',_'J3',_'M4') <= -14
_C189: - X_('J4',_'M4') + X_('J5',_'M4') + 1000 Y_('J5',_'J4',_'M4') <= 994
_C19: X_('J3',_'M1') - X_('J3',_'M5') <= -3
_C190: X_('J4',_'M4') - X_('J5',_'M4') - 1000 Y_('J5',_'J4',_'M4') <= -8
_C191: X_('J1',_'M5') - X_('J2',_'M5') + 1000 Y_('J1',_'J2',_'M5') <= 993
_C192: - X_('J1',_'M5') + X_('J2',_'M5') - 1000 Y_('J1',_'J2',_'M5') <= -14
_C193: X_('J1',_'M5') - X_('J3',_'M5') + 1000 Y_('J1',_'J3',_'M5') <= 993
_C194: - X_('J1',_'M5') + X_('J3',_'M5') - 1000 Y_('J1',_'J3',_'M5') <= -8
_C195: X_('J1',_'M5') - X_('J4',_'M5') + 1000 Y_('J1',_'J4',_'M5') <= 993
_C196: - X_('J1',_'M5') + X_('J4',_'M5') - 1000 Y_('J1',_'J4',_'M5') <= -9
_C197: X_('J1',_'M5') - X_('J5',_'M5') + 1000 Y_('J1',_'J5',_'M5') <= 993
_C198: - X_('J1',_'M5') + X_('J5',_'M5') - 1000 Y_('J1',_'J5',_'M5') <= -13
_C199: - X_('J1',_'M5') + X_('J2',_'M5') + 1000 Y_('J2',_'J1',_'M5') <= 986
_C2: E_J2 - T_J2 + X_('J2',_'M1') = 62
_C20: - X_('J3',_'M4') + X_('J3',_'M5') <= -8
_C200: X_('J1',_'M5') - X_('J2',_'M5') - 1000 Y_('J2',_'J1',_'M5') <= -7
_C201: X_('J2',_'M5') - X_('J3',_'M5') + 1000 Y_('J2',_'J3',_'M5') <= 986
_C202: - X_('J2',_'M5') + X_('J3',_'M5') - 1000 Y_('J2',_'J3',_'M5') <= -8
_C203: X_('J2',_'M5') - X_('J4',_'M5') + 1000 Y_('J2',_'J4',_'M5') <= 986
_C204: - X_('J2',_'M5') + X_('J4',_'M5') - 1000 Y_('J2',_'J4',_'M5') <= -9
_C205: X_('J2',_'M5') - X_('J5',_'M5') + 1000 Y_('J2',_'J5',_'M5') <= 986
_C206: - X_('J2',_'M5') + X_('J5',_'M5') - 1000 Y_('J2',_'J5',_'M5') <= -13
_C207: - X_('J1',_'M5') + X_('J3',_'M5') + 1000 Y_('J3',_'J1',_'M5') <= 992
_C208: X_('J1',_'M5') - X_('J3',_'M5') - 1000 Y_('J3',_'J1',_'M5') <= -7
_C209: - X_('J2',_'M5') + X_('J3',_'M5') + 1000 Y_('J3',_'J2',_'M5') <= 992
_C21: - X_('J4',_'M2') + X_('J4',_'M5') <= -9
_C210: X_('J2',_'M5') - X_('J3',_'M5') - 1000 Y_('J3',_'J2',_'M5') <= -14
_C211: X_('J3',_'M5') - X_('J4',_'M5') + 1000 Y_('J3',_'J4',_'M5') <= 992
_C212: - X_('J3',_'M5') + X_('J4',_'M5') - 1000 Y_('J3',_'J4',_'M5') <= -9
_C213: X_('J3',_'M5') - X_('J5',_'M5') + 1000 Y_('J3',_'J5',_'M5') <= 992
_C214: - X_('J3',_'M5') + X_('J5',_'M5') - 1000 Y_('J3',_'J5',_'M5') <= -13
_C215: - X_('J1',_'M5') + X_('J4',_'M5') + 1000 Y_('J4',_'J1',_'M5') <= 991
_C216: X_('J1',_'M5') - X_('J4',_'M5') - 1000 Y_('J4',_'J1',_'M5') <= -7
_C217: - X_('J2',_'M5') + X_('J4',_'M5') + 1000 Y_('J4',_'J2',_'M5') <= 991
_C218: X_('J2',_'M5') - X_('J4',_'M5') - 1000 Y_('J4',_'J2',_'M5') <= -14
_C219: - X_('J3',_'M5') + X_('J4',_'M5') + 1000 Y_('J4',_'J3',_'M5') <= 991
_C22: X_('J4',_'M2') - X_('J4',_'M7') <= -13
_C220: X_('J3',_'M5') - X_('J4',_'M5') - 1000 Y_('J4',_'J3',_'M5') <= -8
_C221: X_('J4',_'M5') - X_('J5',_'M5') + 1000 Y_('J4',_'J5',_'M5') <= 991
_C222: - X_('J4',_'M5') + X_('J5',_'M5') - 1000 Y_('J4',_'J5',_'M5') <= -13
_C223: - X_('J1',_'M5') + X_('J5',_'M5') + 1000 Y_('J5',_'J1',_'M5') <= 987
_C224: X_('J1',_'M5') - X_('J5',_'M5') - 1000 Y_('J5',_'J1',_'M5') <= -7
_C225: - X_('J2',_'M5') + X_('J5',_'M5') + 1000 Y_('J5',_'J2',_'M5') <= 987
_C226: X_('J2',_'M5') - X_('J5',_'M5') - 1000 Y_('J5',_'J2',_'M5') <= -14
_C227: - X_('J3',_'M5') + X_('J5',_'M5') + 1000 Y_('J5',_'J3',_'M5') <= 987
_C228: X_('J3',_'M5') - X_('J5',_'M5') - 1000 Y_('J5',_'J3',_'M5') <= -8
_C229: - X_('J4',_'M5') + X_('J5',_'M5') + 1000 Y_('J5',_'J4',_'M5') <= 987
_C23: - X_('J4',_'M4') + X_('J4',_'M7') <= -16
_C230: X_('J4',_'M5') - X_('J5',_'M5') - 1000 Y_('J5',_'J4',_'M5') <= -9
_C231: X_('J1',_'M6') - X_('J2',_'M6') + 1000 Y_('J1',_'J2',_'M6') <= 988
_C232: - X_('J1',_'M6') + X_('J2',_'M6') - 1000 Y_('J1',_'J2',_'M6') <= -9
_C233: X_('J1',_'M6') - X_('J3',_'M6') + 1000 Y_('J1',_'J3',_'M6') <= 988
_C234: - X_('J1',_'M6') + X_('J3',_'M6') - 1000 Y_('J1',_'J3',_'M6') <= -14
_C235: X_('J1',_'M6') - X_('J4',_'M6') + 1000 Y_('J1',_'J4',_'M6') <= 988
_C236: - X_('J1',_'M6') + X_('J4',_'M6') - 1000 Y_('J1',_'J4',_'M6') <= -15
_C237: X_('J1',_'M6') - X_('J5',_'M6') + 1000 Y_('J1',_'J5',_'M6') <= 988
_C238: - X_('J1',_'M6') + X_('J5',_'M6') - 1000 Y_('J1',_'J5',_'M6') <= 0
_C239: - X_('J1',_'M6') + X_('J2',_'M6') + 1000 Y_('J2',_'J1',_'M6') <= 991
_C24: - X_('J4',_'M1') + X_('J4',_'M4') <= -8
_C240: X_('J1',_'M6') - X_('J2',_'M6') - 1000 Y_('J2',_'J1',_'M6') <= -12
_C241: X_('J2',_'M6') - X_('J3',_'M6') + 1000 Y_('J2',_'J3',_'M6') <= 991
_C242: - X_('J2',_'M6') + X_('J3',_'M6') - 1000 Y_('J2',_'J3',_'M6') <= -14
_C243: X_('J2',_'M6') - X_('J4',_'M6') + 1000 Y_('J2',_'J4',_'M6') <= 991
_C244: - X_('J2',_'M6') + X_('J4',_'M6') - 1000 Y_('J2',_'J4',_'M6') <= -15
_C245: X_('J2',_'M6') - X_('J5',_'M6') + 1000 Y_('J2',_'J5',_'M6') <= 991
_C246: - X_('J2',_'M6') + X_('J5',_'M6') - 1000 Y_('J2',_'J5',_'M6') <= 0
_C247: - X_('J1',_'M6') + X_('J3',_'M6') + 1000 Y_('J3',_'J1',_'M6') <= 986
_C248: X_('J1',_'M6') - X_('J3',_'M6') - 1000 Y_('J3',_'J1',_'M6') <= -12
_C249: - X_('J2',_'M6') + X_('J3',_'M6') + 1000 Y_('J3',_'J2',_'M6') <= 986
_C25: X_('J4',_'M1') - X_('J4',_'M6') <= -15
_C250: X_('J2',_'M6') - X_('J3',_'M6') - 1000 Y_('J3',_'J2',_'M6') <= -9
_C251: X_('J3',_'M6') - X_('J4',_'M6') + 1000 Y_('J3',_'J4',_'M6') <= 986
_C252: - X_('J3',_'M6') + X_('J4',_'M6') - 1000 Y_('J3',_'J4',_'M6') <= -15
_C253: X_('J3',_'M6') - X_('J5',_'M6') + 1000 Y_('J3',_'J5',_'M6') <= 986
_C254: - X_('J3',_'M6') + X_('J5',_'M6') - 1000 Y_('J3',_'J5',_'M6') <= 0
_C255: - X_('J1',_'M6') + X_('J4',_'M6') + 1000 Y_('J4',_'J1',_'M6') <= 985
_C256: X_('J1',_'M6') - X_('J4',_'M6') - 1000 Y_('J4',_'J1',_'M6') <= -12
_C257: - X_('J2',_'M6') + X_('J4',_'M6') + 1000 Y_('J4',_'J2',_'M6') <= 985
_C258: X_('J2',_'M6') - X_('J4',_'M6') - 1000 Y_('J4',_'J2',_'M6') <= -9
_C259: - X_('J3',_'M6') + X_('J4',_'M6') + 1000 Y_('J4',_'J3',_'M6') <= 985
_C26: - X_('J5',_'M1') + X_('J5',_'M7') <= -11
_C260: X_('J3',_'M6') - X_('J4',_'M6') - 1000 Y_('J4',_'J3',_'M6') <= -14
_C261: X_('J4',_'M6') - X_('J5',_'M6') + 1000 Y_('J4',_'J5',_'M6') <= 985
_C262: - X_('J4',_'M6') + X_('J5',_'M6') - 1000 Y_('J4',_'J5',_'M6') <= 0
_C263: - X_('J1',_'M6') + X_('J5',_'M6') + 1000 Y_('J5',_'J1',_'M6') <= 1000
_C264: X_('J1',_'M6') - X_('J5',_'M6') - 1000 Y_('J5',_'J1',_'M6') <= -12
_C265: - X_('J2',_'M6') + X_('J5',_'M6') + 1000 Y_('J5',_'J2',_'M6') <= 1000
_C266: X_('J2',_'M6') - X_('J5',_'M6') - 1000 Y_('J5',_'J2',_'M6') <= -9
_C267: - X_('J3',_'M6') + X_('J5',_'M6') + 1000 Y_('J5',_'J3',_'M6') <= 1000
_C268: X_('J3',_'M6') - X_('J5',_'M6') - 1000 Y_('J5',_'J3',_'M6') <= -14
_C269: - X_('J4',_'M6') + X_('J5',_'M6') + 1000 Y_('J5',_'J4',_'M6') <= 1000
_C27: X_('J5',_'M1') - X_('J5',_'M5') <= -10
_C270: X_('J4',_'M6') - X_('J5',_'M6') - 1000 Y_('J5',_'J4',_'M6') <= -15
_C271: X_('J1',_'M7') - X_('J2',_'M7') + 1000 Y_('J1',_'J2',_'M7') <= 988
_C272: - X_('J1',_'M7') + X_('J2',_'M7') - 1000 Y_('J1',_'J2',_'M7') <= -6
_C273: X_('J1',_'M7') - X_('J3',_'M7') + 1000 Y_('J1',_'J3',_'M7') <= 988
_C274: - X_('J1',_'M7') + X_('J3',_'M7') - 1000 Y_('J1',_'J3',_'M7') <= -14
_C275: X_('J1',_'M7') - X_('J4',_'M7') + 1000 Y_('J1',_'J4',_'M7') <= 988
_C276: - X_('J1',_'M7') + X_('J4',_'M7') - 1000 Y_('J1',_'J4',_'M7') <= -16
_C277: X_('J1',_'M7') - X_('J5',_'M7') + 1000 Y_('J1',_'J5',_'M7') <= 988
_C278: - X_('J1',_'M7') + X_('J5',_'M7') - 1000 Y_('J1',_'J5',_'M7') <= -11
_C279: - X_('J1',_'M7') + X_('J2',_'M7') + 1000 Y_('J2',_'J1',_'M7') <= 994
_C28: - X_('J5',_'M3') + X_('J5',_'M5') <= -13
_C280: X_('J1',_'M7') - X_('J2',_'M7') - 1000 Y_('J2',_'J1',_'M7') <= -12
_C281: X_('J2',_'M7') - X_('J3',_'M7') + 1000 Y_('J2',_'J3',_'M7') <= 994
_C282: - X_('J2',_'M7') + X_('J3',_'M7') - 1000 Y_('J2',_'J3',_'M7') <= -14
_C283: X_('J2',_'M7') - X_('J4',_'M7') + 1000 Y_('J2',_'J4',_'M7') <= 994
_C284: - X_('J2',_'M7') + X_('J4',_'M7') - 1000 Y_('J2',_'J4',_'M7') <= -16
_C285: X_('J2',_'M7') - X_('J5',_'M7') + 1000 Y_('J2',_'J5',_'M7') <= 994
_C286: - X_('J2',_'M7') + X_('J5',_'M7') - 1000 Y_('J2',_'J5',_'M7') <= -11
_C287: - X_('J1',_'M7') + X_('J3',_'M7') + 1000 Y_('J3',_'J1',_'M7') <= 986
_C288: X_('J1',_'M7') - X_('J3',_'M7') - 1000 Y_('J3',_'J1',_'M7') <= -12
_C289: - X_('J2',_'M7') + X_('J3',_'M7') + 1000 Y_('J3',_'J2',_'M7') <= 986
_C29: X_('J5',_'M3') - X_('J5',_'M4') <= -19
_C290: X_('J2',_'M7') - X_('J3',_'M7') - 1000 Y_('J3',_'J2',_'M7') <= -6
_C291: X_('J3',_'M7') - X_('J4',_'M7') + 1000 Y_('J3',_'J4',_'M7') <= 986
_C292: - X_('J3',_'M7') + X_('J4',_'M7') - 1000 Y_('J3',_'J4',_'M7') <= -16
_C293: X_('J3',_'M7') - X_('J5',_'M7') + 1000 Y_('J3',_'J5',_'M7') <= 986
_C294: - X_('J3',_'M7') + X_('J5',_'M7') - 1000 Y_('J3',_'J5',_'M7') <= -11
_C295: - X_('J1',_'M7') + X_('J4',_'M7') + 1000 Y_('J4',_'J1',_'M7') <= 984
_C296: X_('J1',_'M7') - X_('J4',_'M7') - 1000 Y_('J4',_'J1',_'M7') <= -12
_C297: - X_('J2',_'M7') + X_('J4',_'M7') + 1000 Y_('J4',_'J2',_'M7') <= 984
_C298: X_('J2',_'M7') - X_('J4',_'M7') - 1000 Y_('J4',_'J2',_'M7') <= -6
_C299: - X_('J3',_'M7') + X_('J4',_'M7') + 1000 Y_('J4',_'J3',_'M7') <= 984
_C3: E_J3 - T_J3 + X_('J3',_'M4') = 40
_C30: - X_('J5',_'M2') + X_('J5',_'M4') <= -6
_C300: X_('J3',_'M7') - X_('J4',_'M7') - 1000 Y_('J4',_'J3',_'M7') <= -14
_C301: X_('J4',_'M7') - X_('J5',_'M7') + 1000 Y_('J4',_'J5',_'M7') <= 984
_C302: - X_('J4',_'M7') + X_('J5',_'M7') - 1000 Y_('J4',_'J5',_'M7') <= -11
_C303: - X_('J1',_'M7') + X_('J5',_'M7') + 1000 Y_('J5',_'J1',_'M7') <= 989
_C304: X_('J1',_'M7') - X_('J5',_'M7') - 1000 Y_('J5',_'J1',_'M7') <= -12
_C305: - X_('J2',_'M7') + X_('J5',_'M7') + 1000 Y_('J5',_'J2',_'M7') <= 989
_C306: X_('J2',_'M7') - X_('J5',_'M7') - 1000 Y_('J5',_'J2',_'M7') <= -6
_C307: - X_('J3',_'M7') + X_('J5',_'M7') + 1000 Y_('J5',_'J3',_'M7') <= 989
_C308: X_('J3',_'M7') - X_('J5',_'M7') - 1000 Y_('J5',_'J3',_'M7') <= -14
_C309: - X_('J4',_'M7') + X_('J5',_'M7') + 1000 Y_('J5',_'J4',_'M7') <= 989
_C31: X_('J1',_'M1') - X_('J2',_'M1') + 1000 Y_('J1',_'J2',_'M1') <= 988
_C310: X_('J4',_'M7') - X_('J5',_'M7') - 1000 Y_('J5',_'J4',_'M7') <= -16
_C32: - X_('J1',_'M1') + X_('J2',_'M1') - 1000 Y_('J1',_'J2',_'M1') <= -16
_C33: X_('J1',_'M1') - X_('J3',_'M1') + 1000 Y_('J1',_'J3',_'M1') <= 988
_C34: - X_('J1',_'M1') + X_('J3',_'M1') - 1000 Y_('J1',_'J3',_'M1') <= -3
_C35: X_('J1',_'M1') - X_('J4',_'M1') + 1000 Y_('J1',_'J4',_'M1') <= 988
_C36: - X_('J1',_'M1') + X_('J4',_'M1') - 1000 Y_('J1',_'J4',_'M1') <= -15
_C37: X_('J1',_'M1') - X_('J5',_'M1') + 1000 Y_('J1',_'J5',_'M1') <= 988
_C38: - X_('J1',_'M1') + X_('J5',_'M1') - 1000 Y_('J1',_'J5',_'M1') <= -10
_C39: - X_('J1',_'M1') + X_('J2',_'M1') + 1000 Y_('J2',_'J1',_'M1') <= 984
_C4: E_J4 - T_J4 + X_('J4',_'M6') = 70
_C40: X_('J1',_'M1') - X_('J2',_'M1') - 1000 Y_('J2',_'J1',_'M1') <= -12
_C41: X_('J2',_'M1') - X_('J3',_'M1') + 1000 Y_('J2',_'J3',_'M1') <= 984
_C42: - X_('J2',_'M1') + X_('J3',_'M1') - 1000 Y_('J2',_'J3',_'M1') <= -3
_C43: X_('J2',_'M1') - X_('J4',_'M1') + 1000 Y_('J2',_'J4',_'M1') <= 984
_C44: - X_('J2',_'M1') + X_('J4',_'M1') - 1000 Y_('J2',_'J4',_'M1') <= -15
_C45: X_('J2',_'M1') - X_('J5',_'M1') + 1000 Y_('J2',_'J5',_'M1') <= 984
_C46: - X_('J2',_'M1') + X_('J5',_'M1') - 1000 Y_('J2',_'J5',_'M1') <= -10
_C47: - X_('J1',_'M1') + X_('J3',_'M1') + 1000 Y_('J3',_'J1',_'M1') <= 997
_C48: X_('J1',_'M1') - X_('J3',_'M1') - 1000 Y_('J3',_'J1',_'M1') <= -12
_C49: - X_('J2',_'M1') + X_('J3',_'M1') + 1000 Y_('J3',_'J2',_'M1') <= 997
_C5: E_J5 - T_J5 + X_('J5',_'M2') = 75
_C50: X_('J2',_'M1') - X_('J3',_'M1') - 1000 Y_('J3',_'J2',_'M1') <= -16
_C51: X_('J3',_'M1') - X_('J4',_'M1') + 1000 Y_('J3',_'J4',_'M1') <= 997
_C52: - X_('J3',_'M1') + X_('J4',_'M1') - 1000 Y_('J3',_'J4',_'M1') <= -15
_C53: X_('J3',_'M1') - X_('J5',_'M1') + 1000 Y_('J3',_'J5',_'M1') <= 997
_C54: - X_('J3',_'M1') + X_('J5',_'M1') - 1000 Y_('J3',_'J5',_'M1') <= -10
_C55: - X_('J1',_'M1') + X_('J4',_'M1') + 1000 Y_('J4',_'J1',_'M1') <= 985
_C56: X_('J1',_'M1') - X_('J4',_'M1') - 1000 Y_('J4',_'J1',_'M1') <= -12
_C57: - X_('J2',_'M1') + X_('J4',_'M1') + 1000 Y_('J4',_'J2',_'M1') <= 985
_C58: X_('J2',_'M1') - X_('J4',_'M1') - 1000 Y_('J4',_'J2',_'M1') <= -16
_C59: - X_('J3',_'M1') + X_('J4',_'M1') + 1000 Y_('J4',_'J3',_'M1') <= 985
_C6: X_('J1',_'M1') - X_('J1',_'M2') <= -12
_C60: X_('J3',_'M1') - X_('J4',_'M1') - 1000 Y_('J4',_'J3',_'M1') <= -3
_C61: X_('J4',_'M1') - X_('J5',_'M1') + 1000 Y_('J4',_'J5',_'M1') <= 985
_C62: - X_('J4',_'M1') + X_('J5',_'M1') - 1000 Y_('J4',_'J5',_'M1') <= -10
_C63: - X_('J1',_'M1') + X_('J5',_'M1') + 1000 Y_('J5',_'J1',_'M1') <= 990
_C64: X_('J1',_'M1') - X_('J5',_'M1') - 1000 Y_('J5',_'J1',_'M1') <= -12
_C65: - X_('J2',_'M1') + X_('J5',_'M1') + 1000 Y_('J5',_'J2',_'M1') <= 990
_C66: X_('J2',_'M1') - X_('J5',_'M1') - 1000 Y_('J5',_'J2',_'M1') <= -16
_C67: - X_('J3',_'M1') + X_('J5',_'M1') + 1000 Y_('J5',_'J3',_'M1') <= 990
_C68: X_('J3',_'M1') - X_('J5',_'M1') - 1000 Y_('J5',_'J3',_'M1') <= -3
_C69: - X_('J4',_'M1') + X_('J5',_'M1') + 1000 Y_('J5',_'J4',_'M1') <= 990
_C7: X_('J1',_'M2') - X_('J1',_'M4') <= -8
_C70: X_('J4',_'M1') - X_('J5',_'M1') - 1000 Y_('J5',_'J4',_'M1') <= -15
_C71: X_('J1',_'M2') - X_('J2',_'M2') + 1000 Y_('J1',_'J2',_'M2') <= 992
_C72: - X_('J1',_'M2') + X_('J2',_'M2') - 1000 Y_('J1',_'J2',_'M2') <= -11
_C73: X_('J1',_'M2') - X_('J3',_'M2') + 1000 Y_('J1',_'J3',_'M2') <= 992
_C74: - X_('J1',_'M2') + X_('J3',_'M2') - 1000 Y_('J1',_'J3',_'M2') <= 0
_C75: X_('J1',_'M2') - X_('J4',_'M2') + 1000 Y_('J1',_'J4',_'M2') <= 992
_C76: - X_('J1',_'M2') + X_('J4',_'M2') - 1000 Y_('J1',_'J4',_'M2') <= -13
_C77: X_('J1',_'M2') - X_('J5',_'M2') + 1000 Y_('J1',_'J5',_'M2') <= 992
_C78: - X_('J1',_'M2') + X_('J5',_'M2') - 1000 Y_('J1',_'J5',_'M2') <= -15
_C79: - X_('J1',_'M2') + X_('J2',_'M2') + 1000 Y_('J2',_'J1',_'M2') <= 989
_C8: X_('J1',_'M4') - X_('J1',_'M5') <= -18
_C80: X_('J1',_'M2') - X_('J2',_'M2') - 1000 Y_('J2',_'J1',_'M2') <= -8
_C81: X_('J2',_'M2') - X_('J3',_'M2') + 1000 Y_('J2',_'J3',_'M2') <= 989
_C82: - X_('J2',_'M2') + X_('J3',_'M2') - 1000 Y_('J2',_'J3',_'M2') <= 0
_C83: X_('J2',_'M2') - X_('J4',_'M2') + 1000 Y_('J2',_'J4',_'M2') <= 989
_C84: - X_('J2',_'M2') + X_('J4',_'M2') - 1000 Y_('J2',_'J4',_'M2') <= -13
_C85: X_('J2',_'M2') - X_('J5',_'M2') + 1000 Y_('J2',_'J5',_'M2') <= 989
_C86: - X_('J2',_'M2') + X_('J5',_'M2') - 1000 Y_('J2',_'J5',_'M2') <= -15
_C87: - X_('J1',_'M2') + X_('J3',_'M2') + 1000 Y_('J3',_'J1',_'M2') <= 1000
_C88: X_('J1',_'M2') - X_('J3',_'M2') - 1000 Y_('J3',_'J1',_'M2') <= -8
_C89: - X_('J2',_'M2') + X_('J3',_'M2') + 1000 Y_('J3',_'J2',_'M2') <= 1000
_C9: X_('J1',_'M5') - X_('J1',_'M6') <= -7
_C90: X_('J2',_'M2') - X_('J3',_'M2') - 1000 Y_('J3',_'J2',_'M2') <= -11
_C91: X_('J3',_'M2') - X_('J4',_'M2') + 1000 Y_('J3',_'J4',_'M2') <= 1000
_C92: - X_('J3',_'M2') + X_('J4',_'M2') - 1000 Y_('J3',_'J4',_'M2') <= -13
_C93: X_('J3',_'M2') - X_('J5',_'M2') + 1000 Y_('J3',_'J5',_'M2') <= 1000
_C94: - X_('J3',_'M2') + X_('J5',_'M2') - 1000 Y_('J3',_'J5',_'M2') <= -15
_C95: - X_('J1',_'M2') + X_('J4',_'M2') + 1000 Y_('J4',_'J1',_'M2') <= 987
_C96: X_('J1',_'M2') - X_('J4',_'M2') - 1000 Y_('J4',_'J1',_'M2') <= -8
_C97: - X_('J2',_'M2') + X_('J4',_'M2') + 1000 Y_('J4',_'J2',_'M2') <= 987
_C98: X_('J2',_'M2') - X_('J4',_'M2') - 1000 Y_('J4',_'J2',_'M2') <= -11
_C99: - X_('J3',_'M2') + X_('J4',_'M2') + 1000 Y_('J4',_'J3',_'M2') <= 987
Bounds
 0 <= E_J1
 0 <= E_J2
 0 <= E_J3
 0 <= E_J4
 0 <= E_J5
 0 <= T_J1
 0 <= T_J2
 0 <= T_J3
 0 <= T_J4
 0 <= T_J5
 0 <= X_('J1',_'M1')
 0 <= X_('J1',_'M2')
 0 <= X_('J1',_'M3')
 0 <= X_('J1',_'M4')
 0 <= X_('J1',_'M5')
 0 <= X_('J1',_'M6')
 0 <= X_('J1',_'M7')
 0 <= X_('J2',_'M1')
 0 <= X_('J2',_'M2')
 0 <= X_('J2',_'M3')
 0 <= X_('J2',_'M4')
 0 <= X_('J2',_'M5')
 0 <= X_('J2',_'M6')
 0 <= X_('J2',_'M7')
 0 <= X_('J3',_'M1')
 0 <= X_('J3',_'M2')
 0 <= X_('J3',_'M3')
 0 <= X_('J3',_'M4')
 0 <= X_('J3',_'M5')
 0 <= X_('J3',_'M6')
 0 <= X_('J3',_'M7')
 0 <= X_('J4',_'M1')
 0 <= X_('J4',_'M2')
 0 <= X_('J4',_'M3')
 0 <= X_('J4',_'M4')
 0 <= X_('J4',_'M5')
 0 <= X_('J4',_'M6')
 0 <= X_('J4',_'M7')
 0 <= X_('J5',_'M1')
 0 <= X_('J5',_'M2')
 0 <= X_('J5',_'M3')
 0 <= X_('J5',_'M4')
 0 <= X_('J5',_'M5')
 0 <= X_('J5',_'M6')
 0 <= X_('J5',_'M7')
Binaries
Y_('J1',_'J2',_'M1')
Y_('J1',_'J2',_'M2')
Y_('J1',_'J2',_'M3')
Y_('J1',_'J2',_'M4')
Y_('J1',_'J2',_'M5')
Y_('J1',_'J2',_'M6')
Y_('J1',_'J2',_'M7')
Y_('J1',_'J3',_'M1')
Y_('J1',_'J3',_'M2')
Y_('J1',_'J3',_'M3')
Y_('J1',_'J3',_'M4')
Y_('J1',_'J3',_'M5')
Y_('J1',_'J3',_'M6')
Y_('J1',_'J3',_'M7')
Y_('J1',_'J4',_'M1')
Y_('J1',_'J4',_'M2')
Y_('J1',_'J4',_'M3')
Y_('J1',_'J4',_'M4')
Y_('J1',_'J4',_'M5')
Y_('J1',_'J4',_'M6')
Y_('J1',_'J4',_'M7')
Y_('J1',_'J5',_'M1')
Y_('J1',_'J5',_'M2')
Y_('J1',_'J5',_'M3')
Y_('J1',_'J5',_'M4')
Y_('J1',_'J5',_'M5')
Y_('J1',_'J5',_'M6')
Y_('J1',_'J5',_'M7')
Y_('J2',_'J1',_'M1')
Y_('J2',_'J1',_'M2')
Y_('J2',_'J1',_'M3')
Y_('J2',_'J1',_'M4')
Y_('J2',_'J1',_'M5')
Y_('J2',_'J1',_'M6')
Y_('J2',_'J1',_'M7')
Y_('J2',_'J3',_'M1')
Y_('J2',_'J3',_'M2')
Y_('J2',_'J3',_'M3')
Y_('J2',_'J3',_'M4')
Y_('J2',_'J3',_'M5')
Y_('J2',_'J3',_'M6')
Y_('J2',_'J3',_'M7')
Y_('J2',_'J4',_'M1')
Y_('J2',_'J4',_'M2')
Y_('J2',_'J4',_'M3')
Y_('J2',_'J4',_'M4')
Y_('J2',_'J4',_'M5')
Y_('J2',_'J4',_'M6')
Y_('J2',_'J4',_'M7')
Y_('J2',_'J5',_'M1')
Y_('J2',_'J5',_'M2')
Y_('J2',_'J5',_'M3')
Y_('J2',_'J5',_'M4')
Y_('J2',_'J5',_'M5')
Y_('J2',_'J5',_'M6')
Y_('J2',_'J5',_'M7')
Y_('J3',_'J1',_'M1')
Y_('J3',_'J1',_'M2')
Y_('J3',_'J1',_'M3')
Y_('J3',_'J1',_'M4')
Y_('J3',_'J1',_'M5')
Y_('J3',_'J1',_'M6')
Y_('J3',_'J1',_'M7')
Y_('J3',_'J2',_'M1')
Y_('J3',_'J2',_'M2')
Y_('J3',_'J2',_'M3')
Y_('J3',_'J2',_'M4')
Y_('J3',_'J2',_'M5')
Y_('J3',_'J2',_'M6')
Y_('J3',_'J2',_'M7')
Y_('J3',_'J4',_'M1')
Y_('J3',_'J4',_'M2')
Y_('J3',_'J4',_'M3')
Y_('J3',_'J4',_'M4')
Y_('J3',_'J4',_'M5')
Y_('J3',_'J4',_'M6')
Y_('J3',_'J4',_'M7')
Y_('J3',_'J5',_'M1')
Y_('J3',_'J5',_'M2')
Y_('J3',_'J5',_'M3')
Y_('J3',_'J5',_'M4')
Y_('J3',_'J5',_'M5')
Y_('J3',_'J5',_'M6')
Y_('J3',_'J5',_'M7')
Y_('J4',_'J1',_'M1')
Y_('J4',_'J1',_'M2')
Y_('J4',_'J1',_'M3')
Y_('J4',_'J1',_'M4')
Y_('J4',_'J1',_'M5')
Y_('J4',_'J1',_'M6')
Y_('J4',_'J1',_'M7')
Y_('J4',_'J2',_'M1')
Y_('J4',_'J2',_'M2')
Y_('J4',_'J2',_'M3')
Y_('J4',_'J2',_'M4')
Y_('J4',_'J2',_'M5')
Y_('J4',_'J2',_'M6')
Y_('J4',_'J2',_'M7')
Y_('J4',_'J3',_'M1')
Y_('J4',_'J3',_'M2')
Y_('J4',_'J3',_'M3')
Y_('J4',_'J3',_'M4')
Y_('J4',_'J3',_'M5')
Y_('J4',_'J3',_'M6')
Y_('J4',_'J3',_'M7')
Y_('J4',_'J5',_'M1')
Y_('J4',_'J5',_'M2')
Y_('J4',_'J5',_'M3')
Y_('J4',_'J5',_'M4')
Y_('J4',_'J5',_'M5')
Y_('J4',_'J5',_'M6')
Y_('J4',_'J5',_'M7')
Y_('J5',_'J1',_'M1')
Y_('J5',_'J1',_'M2')
Y_('J5',_'J1',_'M3')
Y_('J5',_'J1',_'M4')
Y_('J5',_'J1',_'M5')
Y_('J5',_'J1',_'M6')
Y_('J5',_'J1',_'M7')
Y_('J5',_'J2',_'M1')
Y_('J5',_'J2',_'M2')
Y_('J5',_'J2',_'M3')
Y_('J5',_'J2',_'M4')
Y_('J5',_'J2',_'M5')
Y_('J5',_'J2',_'M6')
Y_('J5',_'J2',_'M7')
Y_('J5',_'J3',_'M1')
Y_('J5',_'J3',_'M2')
Y_('J5',_'J3',_'M3')
Y_('J5',_'J3',_'M4')
Y_('J5',_'J3',_'M5')
Y_('J5',_'J3',_'M6')
Y_('J5',_'J3',_'M7')
Y_('J5',_'J4',_'M1')
Y_('J5',_'J4',_'M2')
Y_('J5',_'J4',_'M3')
Y_('J5',_'J4',_'M4')
Y_('J5',_'J4',_'M5')
Y_('J5',_'J4',_'M6')
Y_('J5',_'J4',_'M7')
End
